solution status: optimal solution found
objective value:                     145699.383642839
d11(0,0)                                            1 	(obj:0)
d11(1,1)                                            1 	(obj:0)
d11(1,2)                                            1 	(obj:0)
d11(1,3)                                            1 	(obj:0)
d11(2,4)                                            1 	(obj:0)
d11(2,5)                                            1 	(obj:0)
d11(2,7)                                            1 	(obj:0)
d11(2,10)                                           1 	(obj:0)
d11(2,11)                                           1 	(obj:0)
d11(3,13)                                           1 	(obj:0)
d11(3,14)                                           1 	(obj:0)
d11(3,16)                                           1 	(obj:0)
d11(3,17)                                           1 	(obj:0)
d11(3,19)                                           1 	(obj:0)
d11(3,20)                                           1 	(obj:0)
d11(3,22)                                           1 	(obj:0)
d11(3,23)                                           1 	(obj:0)
d11(3,25)                                           1 	(obj:0)
d11(3,28)                                           1 	(obj:0)
d11(3,29)                                           1 	(obj:0)
d11(3,31)                                           1 	(obj:0)
d11(3,32)                                           1 	(obj:0)
d11(3,34)                                           1 	(obj:0)
d11(3,35)                                           1 	(obj:0)
d11(3,37)                                           1 	(obj:0)
d11(3,38)                                           1 	(obj:0)
d12(2,6)                                            1 	(obj:0)
d12(2,9)                                            1 	(obj:0)
d12(2,12)                                           1 	(obj:0)
d12(3,15)                                           1 	(obj:0)
d12(3,18)                                           1 	(obj:0)
d12(3,21)                                           1 	(obj:0)
d12(3,24)                                           1 	(obj:0)
d12(3,27)                                           1 	(obj:0)
d12(3,30)                                           1 	(obj:0)
d12(3,33)                                           1 	(obj:0)
d12(3,36)                                           1 	(obj:0)
d12(3,39)                                           1 	(obj:0)
d21(2,4)                                            1 	(obj:0)
d21(2,5)                                            1 	(obj:0)
d21(3,13)                                           1 	(obj:0)
d21(3,14)                                           1 	(obj:0)
d21(3,15)                                           1 	(obj:0)
d21(3,16)                                           1 	(obj:0)
d21(3,17)                                           1 	(obj:0)
d21(3,19)                                           1 	(obj:0)
d21(3,22)                                           1 	(obj:0)
d21(3,23)                                           1 	(obj:0)
d21(3,25)                                           1 	(obj:0)
d21(3,31)                                           1 	(obj:0)
y2(3,24)                             960.592982999987 	(obj:0)
y2(3,27)                             960.592982999987 	(obj:0)
y2(3,30)                             960.592983000038 	(obj:0)
y2(3,33)                             960.592982999987 	(obj:0)
y2(3,36)                             960.592983000038 	(obj:0)
y2(3,39)                             960.592982999987 	(obj:0)
STE(1,1)                             1417.49999999998 	(obj:0)
STE(0,0)                                         7875 	(obj:0)
STE(1,2)                             2414.26600333329 	(obj:0)
STE(1,3)                             3631.71820666664 	(obj:0)
STE(2,4)                            -209.266003333315 	(obj:0)
STE(2,5)                             787.499999999975 	(obj:0)
STE(2,6)                             1700.06333384996 	(obj:0)
STE(2,7)                                        787.5 	(obj:0)
STE(2,8)                             1784.26600333329 	(obj:0)
STE(2,9)                             2696.82933718328 	(obj:0)
STE(2,10)                            2004.95220333335 	(obj:0)
STE(2,11)                            3001.71820666664 	(obj:0)
STE(2,12)                            3914.28154051663 	(obj:0)
STE(3,13)                           -1836.03200666661 	(obj:0)
STE(3,14)                           -839.266003333377 	(obj:0)
STE(3,15)                            73.2973305166723 	(obj:0)
STE(3,16)                           -839.266003333315 	(obj:0)
STE(3,17)                            157.499999999975 	(obj:0)
STE(3,18)                            1070.06333384996 	(obj:0)
STE(3,19)                            73.2973305166718 	(obj:0)
STE(3,20)                            1070.06333384996 	(obj:0)
STE(3,21)                                1982.6266677 	(obj:0)
STE(3,22)                           -839.266003333291 	(obj:0)
STE(3,23)                            157.499999999939 	(obj:0)
STE(3,24)                            1070.06333384999 	(obj:0)
STE(3,25)                                       157.5 	(obj:0)
STE(3,26)                            1154.26600333329 	(obj:0)
STE(3,27)                            2066.82933718328 	(obj:0)
STE(3,28)                            1070.06333384999 	(obj:0)
STE(3,29)                            2066.82933718334 	(obj:0)
STE(3,30)                            2979.39267103331 	(obj:0)
STE(3,31)                            378.186200000062 	(obj:0)
STE(3,32)                            1374.95220333335 	(obj:0)
STE(3,33)                            2287.51553718334 	(obj:0)
STE(3,34)                            1374.95220333335 	(obj:0)
STE(3,35)                            2371.71820666664 	(obj:0)
STE(3,36)                            3284.28154051668 	(obj:0)
STE(3,37)                            2287.51553718333 	(obj:0)
STE(3,38)                            3284.28154051663 	(obj:0)
STE(3,39)                            4196.84487436661 	(obj:0)
y1(3,25)                             897.089402999962 	(obj:0)
y1(3,28)                             897.089402999962 	(obj:0)
y1(3,31)                             897.089402999962 	(obj:0)
y1(3,34)                             897.089402999962 	(obj:0)
y1(3,37)                             897.089402999962 	(obj:0)
BG(3)                                3377.85000000143 	(obj:10)
AVE(1)                               3199.95851117552 	(obj:0)
WB(2)                                3265.15049132519 	(obj:0)
AVE(2)                               3265.15049132519 	(obj:0)
WB(3)                                3291.35535332619 	(obj:0)
AVE(3)                               3291.35535332476 	(obj:0)
WG(1)                                3199.95851117552 	(obj:10)
WG(3)                            -1.42549373665634e-009 	(obj:10)
BG(1)                                 4614.2798531102 	(obj:10)
BG(2)                                         3377.85 	(obj:10)
y1(1,1)                              5244.75000000002 	(obj:0)
y1(1,2)                              4347.66059700004 	(obj:0)
y1(1,3)                              3251.95361400002 	(obj:0)
y1(2,4)                              897.089402999962 	(obj:0)
y1(2,7)                              897.089402999962 	(obj:0)
y1(2,10)                             897.089402999962 	(obj:0)
y1(3,13)                             897.089402999962 	(obj:0)
y1(3,16)                             897.089402999962 	(obj:0)
y1(3,19)                             897.089402999962 	(obj:0)
y1(3,22)                             897.089402999962 	(obj:0)
y2(2,6)                              960.592982999986 	(obj:0)
y2(2,9)                              960.592982999986 	(obj:0)
y2(2,12)                              960.59298299998 	(obj:0)
y2(3,15)                             960.592982999987 	(obj:0)
y2(3,18)                             960.592982999987 	(obj:0)
y2(3,21)                             960.592983000038 	(obj:0)
